
Gurobi 9.1.2 (linux64) logging started Wed Aug  9 03:12:49 2023

Changed value of parameter LogFile to max-ls_r=('3', '1').log
   Prev:   Default: 
Changed value of parameter MIPFocus to 1
   Prev: 0  Min: 0  Max: 3  Default: 0
Changed value of parameter Threads to 32
   Prev: 0  Min: 0  Max: 1024  Default: 0
Changed value of parameter TimeLimit to 3600.0
   Prev: inf  Min: 0.0  Max: inf  Default: inf
Warning: variable name "X[('6', '6'),('7', '6')]" has a space
Warning: constraint name "flow-constr-t0-v('6', '3')" has a space
Warning: to let Gurobi read it back, use rlp format
Gurobi Optimizer version 9.1.2 build v9.1.2rc0 (linux64)
Thread count: 16 physical cores, 32 logical processors, using up to 32 threads
Optimize a model with 2947 rows, 2688 columns and 10296 nonzeros
Model fingerprint: 0xfa19e559
Variable types: 256 continuous, 2432 integer (2432 binary)
Coefficient statistics:
  Matrix range     [1e+00, 7e+04]
  Objective range  [2e-01, 2e-01]
  Bounds range     [1e+00, 3e+04]
  RHS range        [1e+00, 7e+04]
Presolve removed 287 rows and 288 columns
Presolve time: 0.04s
Presolved: 2660 rows, 2400 columns, 18171 nonzeros
Variable types: 256 continuous, 2144 integer (2144 binary)

Root relaxation: objective 6.400000e+01, 154 iterations, 0.00 seconds

    Nodes    |    Current Node    |     Objective Bounds      |     Work
 Expl Unexpl |  Obj  Depth IntInf | Incumbent    BestBd   Gap | It/Node Time

     0     0   64.00000    0   22          -   64.00000      -     -    0s
H    0     0                     241.2500000   64.00000  73.5%     -    0s
H    0     0                     239.2500000   64.00000  73.2%     -    0s
     0     0   64.00000    0   64  239.25000   64.00000  73.2%     -    0s
H    0     0                     162.7500000   64.00000  60.7%     -    0s
H    0     0                      99.5833333   64.00000  35.7%     -    0s
H    0     0                      97.0416667   64.00000  34.0%     -    0s
     0     0   64.00000    0   68   97.04167   64.00000  34.0%     -    0s
H    0     0                      88.8333333   64.00000  28.0%     -    0s
     0     0   64.00000    0   28   88.83333   64.00000  28.0%     -    0s
H    0     0                      85.5000000   64.00000  25.1%     -    0s
     0     0   64.00000    0   50   85.50000   64.00000  25.1%     -    0s
     0     0   64.00000    0   34   85.50000   64.00000  25.1%     -    0s
H    0     0                      85.0833333   64.00000  24.8%     -    0s
H    0     0                      84.3333333   64.00000  24.1%     -    0s
H    0     0                      83.8333333   64.00000  23.7%     -    0s
     0     0   64.00000    0   30   83.83333   64.00000  23.7%     -    0s
     0     0   64.00000    0   32   83.83333   64.00000  23.7%     -    0s
H    0     0                      82.9166667   64.00000  22.8%     -    0s
H    0     0                      82.6666692   64.00000  22.6%     -    0s
     0     0   64.00000    0   30   82.66667   64.00000  22.6%     -    0s
H    0     0                      79.1250000   64.00000  19.1%     -    0s
H    0     2                      78.7500000   64.00000  18.7%     -    1s
     0     2   64.00000    0   26   78.75000   64.00000  18.7%     -    1s
H    1     4                      78.6250000   64.00000  18.6%   288    1s
H    4     8                      78.5000000   64.00000  18.5%  86.5    1s
H   31    64                      78.2500000   64.00000  18.2%  20.5    1s
H   32    64                      77.7500000   64.00000  17.7%  19.9    1s
H   48    64                      77.2500000   64.00000  17.2%  14.3    1s
H   95   126                      77.0000000   64.00000  16.9%   9.1    3s
H   97   126                      76.8636364   64.00000  16.7%   9.0    3s
H   99   126                      74.2500000   64.00000  13.8%   8.8    3s
H  101   126                      73.2500000   64.00000  12.6%   8.7    3s
H  114   126                      71.5000000   64.00000  10.5%   7.9    3s
H  120   126                      71.2500000   64.00000  10.2%   7.6    3s
H  159   190                      71.0000000   64.00000  9.86%   6.3    6s
H  165   190                      70.2500000   64.00000  8.90%   6.1    6s
H  205   226                      70.0000000   64.00000  8.57%   5.2    6s
H  263   603                      69.7500000   64.00000  8.24%   4.5    6s
H  611   635                      69.0000000   64.00000  7.25%   3.0    7s
H  623   635                      68.5000000   64.00000  6.57%   3.0    7s
H  643   667                      68.0000000   64.00000  5.88%   2.9    9s
H  645   667                      67.9999999   64.00000  5.88%   3.0    9s
   675  1482   64.00000   25   38   68.00000   64.00000  5.88%   2.9   10s
H  688  1482                      67.9999998   64.00000  5.88%   2.9   10s
H  701  1482                      67.9999995   64.00000  5.88%   2.9   10s
H  782  1482                      67.6250000   64.00000  5.36%   2.7   10s
H  890  1482                      67.5625000   64.00000  5.27%   2.6   10s
H 1566  4028                      67.5000000   64.00000  5.19%   2.5   12s
H 3216  4028                      67.2500000   64.00000  4.83%   2.4   12s
H 3732  4028                      67.1250000   64.00000  4.66%   2.4   12s
H 4400 10441                      67.0000000   64.00000  4.48%   2.4   12s
 13385 10180   64.00000   46   34   67.00000   64.00000  4.48%   3.0   15s
 13487 10281   64.00000   18   75   67.00000   64.00000  4.48%   4.2   21s
H13489  9771                      66.9999790   64.00000  4.48%   4.2   21s
H13502  9282                      66.6250000   64.00000  3.94%   4.2   21s
H13583  8891                      66.5000000   64.00000  3.76%   4.2   23s
H13584  8455                      66.3333333   64.00000  3.52%   4.2   23s
H13609  8032                      66.3333330   64.00000  3.52%   4.3   23s
H13675  7707                      66.2500000   64.00000  3.40%   4.3   25s
H13677  7332                      66.0000000   64.00000  3.03%   4.3   25s
H13707  7050                      65.6666667   64.00000  2.54%   4.3   27s
H14081  7271                      65.6666659   64.00000  2.54%   4.5   27s
H14212  6907                      65.5000000   64.00000  2.29%   4.5   27s
H14363  6551                      65.0000000   64.00000  1.54%   4.5   27s
 14706  8029   64.00000   37   72   65.00000   64.00000  1.54%   4.6   31s
 16484  8345   64.00000   61   68   65.00000   64.00000  1.54%   5.3   35s
H16742  7969                      64.9999940   64.00000  1.54%   5.3   35s
H16935  7415                      64.5000000   64.00000  0.78%   5.4   35s
H16936  6485                      64.0000000   64.00000  0.00%   5.4   35s

Cutting planes:
  Learned: 4
  Cover: 50
  Implied bound: 59
  Clique: 43
  MIR: 76
  Flow cover: 96
  GUB cover: 2
  RLT: 13
  Relax-and-lift: 138

Explored 17760 nodes (105345 simplex iterations) in 35.08 seconds
Thread count was 32 (of 32 available processors)

Solution count 10: 64 64.5 65 ... 66.3333

Optimal solution found (tolerance 1.00e-04)
Best objective 6.400000000000e+01, best bound 6.400000000000e+01, gap 0.0000%
